
Gurobi 8.1.1 (linux64, Python) logging started Wed Jul 24 11:03:23 2019

Academic license - for non-commercial use only
Changed value of parameter MIPGap to 0.01
   Prev: 0.0001  Min: 0.0  Max: 1e+100  Default: 0.0001
Changed value of parameter Threads to 1
   Prev: 0  Min: 0  Max: 1024  Default: 0
Changed value of parameter Presolve to 2
   Prev: -1  Min: -1  Max: 2  Default: -1
Changed value of parameter MIPFocus to 1
   Prev: 0  Min: 0  Max: 3  Default: 0
Changed value of parameter Cuts to 1
   Prev: -1  Min: -1  Max: 3  Default: -1
Changed value of parameter Method to 4
   Prev: -1  Min: -1  Max: 5  Default: -1
Changed value of parameter TimeLimit to 12600.0
   Prev: 1e+100  Min: 0.0  Max: 1e+100  Default: 1e+100
Optimize a model with 1755 rows, 3220 columns and 6440 nonzeros
Variable types: 0 continuous, 3220 integer (1610 binary)
Coefficient statistics:
  Matrix range     [5e-02, 1e+00]
  Objective range  [1e+00, 1e+01]
  Bounds range     [1e+00, 2e+01]
  RHS range        [1e+00, 2e+01]
Found heuristic solution: objective 84.0000000
Presolve removed 315 rows and 315 columns
Presolve time: 0.04s
Presolved: 1440 rows, 2905 columns, 5810 nonzeros
Variable types: 0 continuous, 2905 integer (1421 binary)
Presolve removed 1301 rows and 1448 columns
Presolved: 139 rows, 1457 columns, 2890 nonzeros


Root relaxation: objective 1.408492e+01, 137 iterations, 0.01 seconds

    Nodes    |    Current Node    |     Objective Bounds      |     Work
 Expl Unexpl |  Obj  Depth IntInf | Incumbent    BestBd   Gap | It/Node Time

     0     0   14.08492    0   19   84.00000   14.08492  83.2%     -    0s
H    0     0                      43.0000000   14.08492  67.2%     -    0s
H    0     0                      41.0000000   14.08492  65.6%     -    0s
     0     0   19.59683    0   21   41.00000   19.59683  52.2%     -    0s
H    0     0                      34.0000000   19.59683  42.4%     -    0s
     0     0   20.50909    0   63   34.00000   20.50909  39.7%     -    0s
H    0     0                      29.0000000   20.50909  29.3%     -    0s
     0     0   20.60444    0   51   29.00000   20.60444  29.0%     -    0s
     0     0   20.62700    0   53   29.00000   20.62700  28.9%     -    0s
     0     0   20.62700    0   54   29.00000   20.62700  28.9%     -    0s
     0     0   20.63996    0   84   29.00000   20.63996  28.8%     -    0s
     0     0   20.65425    0   78   29.00000   20.65425  28.8%     -    0s
     0     0   20.69048    0   70   29.00000   20.69048  28.7%     -    0s
H    0     0                      26.0000000   20.69048  20.4%     -    0s
     0     0   20.69048    0   68   26.00000   20.69048  20.4%     -    0s
     0     0   20.70312    0   60   26.00000   20.70312  20.4%     -    0s
     0     0   20.70312    0   19   26.00000   20.70312  20.4%     -    0s
     0     0   20.70312    0   50   26.00000   20.70312  20.4%     -    0s
     0     0   21.04417    0   31   26.00000   21.04417  19.1%     -    0s
     0     0   21.06962    0   48   26.00000   21.06962  19.0%     -    0s
     0     0   21.06962    0   52   26.00000   21.06962  19.0%     -    0s
     0     0   21.12774    0   68   26.00000   21.12774  18.7%     -    0s
     0     0   21.26267    0   62   26.00000   21.26267  18.2%     -    0s
     0     0   21.26382    0   73   26.00000   21.26382  18.2%     -    0s
     0     0   21.26582    0   79   26.00000   21.26582  18.2%     -    0s
     0     0   21.27133    0   70   26.00000   21.27133  18.2%     -    0s
     0     0   21.27263    0   69   26.00000   21.27263  18.2%     -    0s
     0     0   21.47470    0   71   26.00000   21.47470  17.4%     -    0s
     0     0   21.47470    0   67   26.00000   21.47470  17.4%     -    0s
     0     0   21.49529    0   94   26.00000   21.49529  17.3%     -    0s
     0     0   21.49941    0  102   26.00000   21.49941  17.3%     -    0s
     0     0   21.49941    0  102   26.00000   21.49941  17.3%     -    0s
     0     0   21.52035    0  101   26.00000   21.52035  17.2%     -    0s
     0     0   21.52035    0   17   26.00000   21.52035  17.2%     -    0s
     0     0   21.52035    0   36   26.00000   21.52035  17.2%     -    0s
     0     0   21.52035    0   48   26.00000   21.52035  17.2%     -    0s
     0     0   21.52035    0   45   26.00000   21.52035  17.2%     -    0s
     0     0   21.52035    0   55   26.00000   21.52035  17.2%     -    0s
     0     0   21.52035    0   85   26.00000   21.52035  17.2%     -    0s
     0     0   21.52035    0   90   26.00000   21.52035  17.2%     -    0s
     0     0   21.52035    0   97   26.00000   21.52035  17.2%     -    0s
     0     0   21.52328    0  100   26.00000   21.52328  17.2%     -    0s
     0     0   21.54083    0  104   26.00000   21.54083  17.2%     -    0s
     0     0   21.54083    0  107   26.00000   21.54083  17.2%     -    0s
     0     0   21.59188    0  131   26.00000   21.59188  17.0%     -    0s
     0     0   21.59188    0  120   26.00000   21.59188  17.0%     -    0s
     0     0   21.64898    0  129   26.00000   21.64898  16.7%     -    0s
     0     0   21.67609    0  118   26.00000   21.67609  16.6%     -    0s
     0     0   21.67917    0  127   26.00000   21.67917  16.6%     -    0s
     0     0   21.67928    0  135   26.00000   21.67928  16.6%     -    0s
     0     0   21.71086    0  116   26.00000   21.71086  16.5%     -    1s
     0     2   21.71086    0  114   26.00000   21.71086  16.5%     -    1s
  1371   223   24.57545   71   35   26.00000   23.77600  8.55%  21.7    5s

Cutting planes:
  Gomory: 13
  Cover: 10
  Implied bound: 2
  MIR: 24
  StrongCG: 1
  Flow cover: 81
  Inf proof: 2
  Zero half: 2
  Network: 16

Explored 3540 nodes (69931 simplex iterations) in 7.68 seconds
Thread count was 1 (of 56 available processors)

Solution count 6: 26 29 34 ... 84

Optimal solution found (tolerance 1.00e-02)
Best objective 2.600000000000e+01, best bound 2.600000000000e+01, gap 0.0000%
Parameter SolutionNumber unchanged
   Value: 0  Min: 0  Max: 2000000000  Default: 0
Changed value of parameter SolutionNumber to 1
   Prev: 0  Min: 0  Max: 2000000000  Default: 0
Changed value of parameter SolutionNumber to 2
   Prev: 1  Min: 0  Max: 2000000000  Default: 0
Changed value of parameter SolutionNumber to 3
   Prev: 2  Min: 0  Max: 2000000000  Default: 0
Changed value of parameter SolutionNumber to 4
   Prev: 3  Min: 0  Max: 2000000000  Default: 0
Changed value of parameter SolutionNumber to 5
   Prev: 4  Min: 0  Max: 2000000000  Default: 0
